clingo version 5.4.0
Reading from merger/Adrian/merge.lp ...
Solving...
Answer: 1
occurs(object(robot,1),action(move,(0,1)),1). occurs(object(robot,2),action(move,(0,-1)),1). occurs(object(robot,3),action(move,(0,1)),1). occurs(object(robot,4),action(move,(0,-1)),1). occurs(object(robot,5),action(move,(0,-1)),1). occurs(object(robot,6),action(move,(-1,0)),1). occurs(object(robot,1),action(move,(0,1)),2). occurs(object(robot,2),action(move,(-1,0)),2). occurs(object(robot,3),action(move,(0,1)),2). occurs(object(robot,4),action(move,(0,-1)),2). occurs(object(robot,5),action(move,(0,-1)),2). occurs(object(robot,6),action(move,(0,-1)),2). occurs(object(robot,1),action(move,(0,1)),3). occurs(object(robot,1),action(move,(0,1)),4). occurs(object(robot,1),action(move,(-1,0)),5). occurs(object(robot,1),action(move,(0,1)),6). occurs(object(robot,1),action(move,(-1,0)),7). occurs(object(robot,1),action(move,(-1,0)),8). occurs(object(robot,1),action(move,(0,1)),9). occurs(object(robot,1),action(move,(0,1)),10). occurs(object(robot,3),action(move,(0,1)),4). occurs(object(robot,3),action(move,(0,1)),5). occurs(object(robot,3),action(move,(-1,0)),7). occurs(object(robot,3),action(move,(-1,0)),8). occurs(object(robot,3),action(move,(-1,0)),9). occurs(object(robot,3),action(move,(-1,0)),10). occurs(object(robot,3),action(move,(-1,0)),11). occurs(object(robot,3),action(move,(-1,0)),12). occurs(object(robot,3),action(move,(-1,0)),13). occurs(object(robot,3),action(move,(-1,0)),14). occurs(object(robot,3),action(move,(-1,0)),15). occurs(object(robot,4),action(move,(0,-1)),3). occurs(object(robot,4),action(move,(1,0)),4). occurs(object(robot,4),action(move,(0,-1)),5). occurs(object(robot,4),action(move,(0,-1)),6). occurs(object(robot,4),action(move,(1,0)),7). occurs(object(robot,4),action(move,(1,0)),8). occurs(object(robot,4),action(move,(1,0)),9). occurs(object(robot,5),action(move,(0,-1)),3). occurs(object(robot,5),action(move,(0,-1)),4). occurs(object(robot,5),action(move,(0,-1)),5). occurs(object(robot,5),action(move,(0,-1)),6). occurs(object(robot,5),action(move,(0,-1)),7). occurs(object(robot,5),action(move,(0,-1)),8). occurs(object(robot,5),action(move,(0,-1)),9). occurs(object(robot,5),action(move,(0,-1)),10). occurs(object(robot,5),action(move,(-1,0)),11). occurs(object(robot,5),action(move,(-1,0)),12). occurs(object(robot,5),action(move,(-1,0)),13). occurs(object(robot,5),action(move,(0,-1)),14). occurs(object(robot,5),action(move,(-1,0)),15). occurs(object(robot,5),action(move,(-1,0)),16). occurs(object(robot,5),action(move,(0,-1)),17). occurs(object(robot,5),action(move,(0,-1)),18). occurs(object(robot,5),action(move,(-1,0)),19). occurs(object(robot,5),action(move,(-1,0)),20). occurs(object(robot,5),action(move,(-1,0)),21). occurs(object(robot,6),action(move,(-1,0)),3). occurs(object(robot,3),action(move,(0,1)),6). occurs(object(robot,3),action(move,(-1,0)),16). occurs(object(robot,3),action(move,(-1,0)),3). occurs(object(robot,3),action(move,(1,0)),21).
Optimization: 1
OPTIMUM FOUND

Models       : 1
  Optimum    : yes
Optimization : 1
Calls        : 1
Time         : 420.030s (Solving: 0.07s 1st Model: 0.07s Unsat: 0.00s)
CPU Time     : 419.762s
